(set-logic ALL)
(declare-fun var0 () String)
(assert (str.in_re var0 (re.++ (re.+ (re.* (str.to_re "000"))) (re.++ (re.+ (re.union (str.to_re "11") (str.to_re "222"))) (re.++ (re.+ (re.* (str.to_re "333"))) (re.++ (re.* (re.* (str.to_re "44"))) (re.++ (re.* (re.* (str.to_re "55"))) (re.++ (re.* (re.union (str.to_re "66") (str.to_re "77"))) (re.++ (re.+ (re.+ (str.to_re "888"))) (re.++ (re.* (re.+ (str.to_re "999"))) (re.++ (re.union (re.union (str.to_re "a") (str.to_re "bbb")) (re.union (str.to_re "cc") (str.to_re "ddd"))) (re.++ (re.union (re.* (str.to_re "e")) (re.* (str.to_re "fff"))) (re.++ (re.* (re.* (str.to_re "gg"))) (re.++ (re.+ (re.union (str.to_re "h") (str.to_re "i"))) (re.++ (re.+ (re.* (str.to_re "jjj"))) (re.++ (re.* (re.union (str.to_re "kkk") (str.to_re "ll"))) (re.++ (re.* (re.union (str.to_re "mm") (str.to_re "n"))) (re.++ (re.union (re.+ (str.to_re "ooo")) (re.+ (str.to_re "ppp"))) (re.++ (re.+ (re.union (str.to_re "q") (str.to_re "rr"))) (re.++ (re.+ (re.+ (str.to_re "s"))) (re.++ (re.* (re.+ (str.to_re "ttt"))) (re.++ (re.* (re.union (str.to_re "uu") (str.to_re "vv"))) (re.++ (re.* (re.union (str.to_re "www") (str.to_re "xx"))) (re.++ (re.+ (re.* (str.to_re "yy"))) (re.++ (re.+ (re.union (str.to_re "zzz") (str.to_re "AA"))) (re.++ (re.union (re.union (str.to_re "BBB") (str.to_re "CC")) (re.union (str.to_re "D") (str.to_re "EEE"))) (re.++ (re.* (re.* (str.to_re "F"))) (re.++ (re.* (re.* (str.to_re "G"))) (re.++ (re.+ (re.* (str.to_re "HHH"))) (re.++ (re.union (re.* (str.to_re "II")) (re.* (str.to_re "JJJ"))) (re.++ (re.+ (re.* (str.to_re "KK"))) (re.++ (re.union (re.* (str.to_re "LLL")) (re.* (str.to_re "MMM"))) (re.++ (re.+ (re.union (str.to_re "NNN") (str.to_re "O"))) (re.++ (re.+ (re.+ (str.to_re "P"))) (re.++ (re.union (re.union (str.to_re "Q") (str.to_re "RR")) (re.union (str.to_re "S") (str.to_re "T"))) (re.++ (re.+ (re.+ (str.to_re "UUU"))) (re.++ (re.+ (re.+ (str.to_re "VVV"))) (re.++ (re.* (re.union (str.to_re "W") (str.to_re "X"))) (re.++ (re.* (re.union (str.to_re "YYY") (str.to_re "ZZZ"))) (re.++ (re.+ (re.+ (str.to_re "!"))) (re.++ (re.union (re.* (str.to_re """""""")) (re.* (str.to_re "#"))) (re.++ (re.* (re.union (str.to_re "$$") (str.to_re "%%"))) (re.++ (re.union (re.union (str.to_re "&&") (str.to_re "'")) (re.union (str.to_re "(") (str.to_re ")"))) (re.++ (re.union (re.* (str.to_re "*")) (re.* (str.to_re "++"))) (re.++ (re.* (re.+ (str.to_re ",,,"))) (re.++ (re.+ (re.* (str.to_re "--"))) (re.++ (re.union (re.+ (str.to_re "..")) (re.+ (str.to_re "//"))) (re.++ (re.* (re.+ (str.to_re ":"))) (re.++ (re.union (re.+ (str.to_re ";;")) (re.+ (str.to_re "<"))) (re.++ (re.+ (re.* (str.to_re "="))) (re.++ (re.+ (re.+ (str.to_re ">"))) (re.++ (re.* (re.+ (str.to_re "??"))) (re.++ (re.+ (re.union (str.to_re "@@") (str.to_re "["))) (re.++ (re.union (re.+ (str.to_re "\\\\")) (re.+ (str.to_re "]]]"))) (re.++ (re.+ (re.+ (str.to_re "^^^"))) (re.++ (re.union (re.union (str.to_re "___") (str.to_re "``")) (re.union (str.to_re "{{") (str.to_re "|||"))) (re.++ (re.union (re.union (str.to_re "}}}") (str.to_re "~")) (re.union (str.to_re "00") (str.to_re "111"))) (re.++ (re.+ (re.+ (str.to_re "2"))) (re.++ (re.* (re.* (str.to_re "33"))) (re.++ (re.* (re.+ (str.to_re "44"))) (re.++ (re.union (re.union (str.to_re "5") (str.to_re "66")) (re.union (str.to_re "77") (str.to_re "88"))) (re.++ (re.+ (re.union (str.to_re "9") (str.to_re "a"))) (re.++ (re.+ (re.+ (str.to_re "bbb"))) (re.++ (re.* (re.+ (str.to_re "c"))) (re.++ (re.+ (re.+ (str.to_re "d"))) (re.++ (re.+ (re.* (str.to_re "eee"))) (re.++ (re.union (re.+ (str.to_re "ff")) (re.+ (str.to_re "g"))) (re.* (re.+ (str.to_re "hh"))))))))))))))))))))))))))))))))))))))))))))))))))))))))))))))))))))))
(assert (not (str.in_re var0 (re.++ (re.* (re.* (str.to_re "000"))) (re.++ (re.+ (re.union (str.to_re "1") (str.to_re "22"))) (re.++ (re.union (re.+ (str.to_re "333")) (re.+ (str.to_re "4"))) (re.++ (re.+ (re.* (str.to_re "5"))) (re.++ (re.+ (re.* (str.to_re "666"))) (re.++ (re.+ (re.+ (str.to_re "7"))) (re.++ (re.+ (re.* (str.to_re "888"))) (re.++ (re.+ (re.union (str.to_re "9") (str.to_re "aaa"))) (re.++ (re.* (re.union (str.to_re "b") (str.to_re "c"))) (re.++ (re.+ (re.+ (str.to_re "ddd"))) (re.++ (re.* (re.+ (str.to_re "ee"))) (re.++ (re.+ (re.union (str.to_re "f") (str.to_re "g"))) (re.++ (re.+ (re.union (str.to_re "h") (str.to_re "ii"))) (re.++ (re.+ (re.* (str.to_re "jjj"))) (re.++ (re.+ (re.union (str.to_re "k") (str.to_re "ll"))) (re.++ (re.* (re.+ (str.to_re "mmm"))) (re.++ (re.+ (re.* (str.to_re "nn"))) (re.++ (re.union (re.* (str.to_re "o")) (re.* (str.to_re "p"))) (re.++ (re.+ (re.union (str.to_re "qqq") (str.to_re "rrr"))) (re.++ (re.union (re.+ (str.to_re "sss")) (re.+ (str.to_re "ttt"))) (re.++ (re.union (re.union (str.to_re "u") (str.to_re "vv")) (re.union (str.to_re "w") (str.to_re "x"))) (re.++ (re.union (re.union (str.to_re "yy") (str.to_re "zz")) (re.union (str.to_re "A") (str.to_re "BBB"))) (re.++ (re.union (re.* (str.to_re "CC")) (re.* (str.to_re "D"))) (re.++ (re.* (re.+ (str.to_re "E"))) (re.++ (re.union (re.+ (str.to_re "FF")) (re.+ (str.to_re "GG"))) (re.++ (re.union (re.union (str.to_re "HH") (str.to_re "I")) (re.union (str.to_re "JJJ") (str.to_re "KKK"))) (re.++ (re.union (re.union (str.to_re "LL") (str.to_re "M")) (re.union (str.to_re "N") (str.to_re "OOO"))) (re.++ (re.* (re.union (str.to_re "PP") (str.to_re "Q"))) (re.++ (re.union (re.+ (str.to_re "RRR")) (re.+ (str.to_re "SS"))) (re.++ (re.+ (re.* (str.to_re "T"))) (re.++ (re.union (re.* (str.to_re "UUU")) (re.* (str.to_re "VVV"))) (re.++ (re.* (re.union (str.to_re "WW") (str.to_re "X"))) (re.++ (re.+ (re.+ (str.to_re "YYY"))) (re.++ (re.* (re.+ (str.to_re "Z"))) (re.++ (re.* (re.+ (str.to_re "!!"))) (re.++ (re.+ (re.* (str.to_re """"))) (re.++ (re.union (re.* (str.to_re "#")) (re.* (str.to_re "$$"))) (re.++ (re.* (re.+ (str.to_re "%%"))) (re.++ (re.+ (re.+ (str.to_re "&"))) (re.++ (re.+ (re.union (str.to_re "'''") (str.to_re "("))) (re.++ (re.* (re.union (str.to_re ")") (str.to_re "*"))) (re.++ (re.union (re.+ (str.to_re "+++")) (re.+ (str.to_re ",,"))) (re.++ (re.union (re.* (str.to_re "--")) (re.* (str.to_re ".."))) (re.++ (re.union (re.+ (str.to_re "/")) (re.+ (str.to_re ":"))) (re.++ (re.* (re.union (str.to_re ";") (str.to_re "<<<"))) (re.++ (re.+ (re.union (str.to_re "=") (str.to_re ">>>"))) (re.++ (re.union (re.* (str.to_re "??")) (re.* (str.to_re "@@@"))) (re.++ (re.+ (re.* (str.to_re "[[["))) (re.++ (re.+ (re.* (str.to_re "\\\\\\"))) (re.++ (re.+ (re.+ (str.to_re "]]"))) (re.++ (re.+ (re.+ (str.to_re "^^^"))) (re.++ (re.union (re.+ (str.to_re "__")) (re.+ (str.to_re "```"))) (re.++ (re.union (re.union (str.to_re "{{") (str.to_re "|||")) (re.union (str.to_re "}}") (str.to_re "~~"))) (re.++ (re.+ (re.union (str.to_re "000") (str.to_re "11"))) (re.++ (re.* (re.+ (str.to_re "222"))) (re.++ (re.union (re.+ (str.to_re "33")) (re.+ (str.to_re "444"))) (re.++ (re.+ (re.union (str.to_re "555") (str.to_re "666"))) (re.++ (re.+ (re.* (str.to_re "777"))) (re.++ (re.union (re.* (str.to_re "888")) (re.* (str.to_re "999"))) (re.++ (re.union (re.union (str.to_re "aa") (str.to_re "bb")) (re.union (str.to_re "cc") (str.to_re "ddd"))) (re.++ (re.* (re.* (str.to_re "eee"))) (re.++ (re.* (re.+ (str.to_re "fff"))) (re.++ (re.+ (re.+ (str.to_re "gg"))) (re.++ (re.union (re.union (str.to_re "hhh") (str.to_re "ii")) (re.union (str.to_re "jjj") (str.to_re "kkk"))) (re.++ (re.+ (re.+ (str.to_re "ll"))) (re.* (re.* (str.to_re "mm")))))))))))))))))))))))))))))))))))))))))))))))))))))))))))))))))))))))
(check-sat)